7 
14 
3 
7 
5 
7 
2 
7 
10 
2 
10 
10 
7 
7 
11 
7 
4 
4 
8 
1 
5 
5 
6 
7 
9 
3 
8 
12 
2 
2 
4 
1 
7 
4 
8 
6 
3 
6 
3 
12 
10 
4 
3 
4 
9 
5 
3 
2 
6 
6 
9 
9 
8 
3 
4 
13 
7 
3 
8 
12 
2 
9 
5 
2 
6 
9 
5 
7 
4 
4 
1 
6 
5 
3 
1 
7 
2 
5 
9 
10 
7 
5 
1 
4 
5 
13 
6 
9 
2 
2 
11 
3 
6 
1 
3 
7 
3 
6 
6 
7 
